<?xml version="1.0" encoding="UTF-8"?><osil xmlns="os.optimizationservices.org" xmlns:xsi="http://www.w3.org/2001/XMLSchema-instance" xsi:schemaLocation="os.optimizationservices.org http://www.optimizationservices.org/schemas/2.0/OSiL.xsd"><instanceHeader><name>ex1244</name></instanceHeader><instanceData><variables numberOfVariables="95"><var name="x1" lb="77" ub="159"/><var name="x2" lb="77" ub="159"/><var name="x3" lb="77" ub="159"/><var name="x4" lb="77" ub="159"/><var name="x5" lb="80" ub="267"/><var name="x6" lb="80" ub="267"/><var name="x7" lb="80" ub="267"/><var name="x8" lb="80" ub="267"/><var name="x9" lb="90" ub="343"/><var name="x10" lb="90" ub="343"/><var name="x11" lb="90" ub="343"/><var name="x12" lb="90" ub="343"/><var name="x13" lb="26" ub="127"/><var name="x14" lb="26" ub="127"/><var name="x15" lb="26" ub="127"/><var name="x16" lb="26" ub="127"/><var name="x17" lb="118" ub="265"/><var name="x18" lb="118" ub="265"/><var name="x19" lb="118" ub="265"/><var name="x20" lb="118" ub="265"/><var name="x21"/><var name="x22"/><var name="x23"/><var name="x24"/><var name="x25"/><var name="x26"/><var name="x27"/><var name="x28"/><var name="x29"/><var name="x30"/><var name="x31"/><var name="x32"/><var name="x33"/><var name="x34"/><var name="x35"/><var name="x36"/><var name="x37"/><var name="x38"/><var name="x39"/><var name="x40"/><var name="x41"/><var name="x42"/><var name="x43"/><var name="x44" lb="1"/><var name="x45" lb="1"/><var name="x46" lb="1"/><var name="x47" lb="1"/><var name="x48" lb="1"/><var name="x49" lb="1"/><var name="x50" lb="1"/><var name="x51" lb="1"/><var name="x52" lb="1"/><var name="x53" lb="1"/><var name="x54" lb="1"/><var name="x55" lb="1"/><var name="x56" lb="1"/><var name="x57" lb="1"/><var name="x58" lb="1"/><var name="x59" lb="1"/><var name="x60" lb="1"/><var name="x61" lb="1"/><var name="x62" lb="1"/><var name="x63" lb="1"/><var name="x64" lb="1"/><var name="x65" lb="1"/><var name="x66" lb="1"/><var name="x67" lb="1"/><var name="x68" lb="1"/><var name="x69" lb="1"/><var name="x70" lb="1"/><var name="x71" lb="1"/><var name="x72" lb="1"/><var name="b73" type="B" ub="1"/><var name="b74" type="B" ub="1"/><var name="b75" type="B" ub="1"/><var name="b76" type="B" ub="1"/><var name="b77" type="B" ub="1"/><var name="b78" type="B" ub="1"/><var name="b79" type="B" ub="1"/><var name="b80" type="B" ub="1"/><var name="b81" type="B" ub="1"/><var name="b82" type="B" ub="1"/><var name="b83" type="B" ub="1"/><var name="b84" type="B" ub="1"/><var name="b85" type="B" ub="1"/><var name="b86" type="B" ub="1"/><var name="b87" type="B" ub="1"/><var name="b88" type="B" ub="1"/><var name="b89" type="B" ub="1"/><var name="b90" type="B" ub="1"/><var name="b91" type="B" ub="1"/><var name="b92" type="B" ub="1"/><var name="b93" type="B" ub="1"/><var name="b94" type="B" ub="1"/><var name="b95" type="B" ub="1"/></variables><objectives><obj maxOrMin="min" name="defObj_objvar" numberOfObjCoef="23"><coef idx="72">7.4e3</coef><coef idx="73">7.4e3</coef><coef idx="74">7.4e3</coef><coef idx="75">7.4e3</coef><coef idx="76">7.4e3</coef><coef idx="77">7.4e3</coef><coef idx="78">7.4e3</coef><coef idx="79">7.4e3</coef><coef idx="80">7.4e3</coef><coef idx="81">7.4e3</coef><coef idx="82">7.4e3</coef><coef idx="83">7.4e3</coef><coef idx="84">7.4e3</coef><coef idx="85">7.4e3</coef><coef idx="86">7.4e3</coef><coef idx="87">7.4e3</coef><coef idx="88">7.4e3</coef><coef idx="89">7.4e3</coef><coef idx="90">7.4e3</coef><coef idx="91">7.4e3</coef><coef idx="92">7.4e3</coef><coef idx="93">7.4e3</coef><coef idx="94">7.4e3</coef></obj></objectives><constraints numberOfConstraints="129"><con name="e2" lb="187.37" ub="187.37"/><con name="e3" lb="38.148" ub="38.148"/><con name="e4" lb="136.114" ub="136.114"/><con name="e5" lb="94.233" ub="94.233"/><con name="e6" lb="288.267" ub="288.267"/><con name="e7" lb="0" ub="0"/><con name="e8" lb="0" ub="0"/><con name="e9" lb="0" ub="0"/><con name="e10" lb="0" ub="0"/><con name="e11" lb="0" ub="0"/><con name="e12" lb="0" ub="0"/><con name="e13" lb="0" ub="0"/><con name="e14" lb="0" ub="0"/><con name="e15" lb="0" ub="0"/><con name="e16" lb="0" ub="0"/><con name="e17" lb="0" ub="0"/><con name="e18" lb="0" ub="0"/><con name="e19" lb="0" ub="0"/><con name="e20" lb="0" ub="0"/><con name="e21" lb="0" ub="0"/><con name="e22" lb="159" ub="159"/><con name="e23" lb="267" ub="267"/><con name="e24" lb="343" ub="343"/><con name="e25" lb="26" ub="26"/><con name="e26" lb="118" ub="118"/><con name="e27" ub="0"/><con name="e28" ub="0"/><con name="e29" ub="0"/><con name="e30" ub="0"/><con name="e31" ub="0"/><con name="e32" ub="0"/><con name="e33" ub="0"/><con name="e34" ub="0"/><con name="e35" ub="0"/><con name="e36" ub="0"/><con name="e37" ub="0"/><con name="e38" ub="0"/><con name="e39" ub="0"/><con name="e40" ub="0"/><con name="e41" ub="0"/><con name="e42" ub="-77"/><con name="e43" ub="-80"/><con name="e44" ub="-90"/><con name="e45" ub="127"/><con name="e46" ub="265"/><con name="e47" lb="175.945" ub="175.945"/><con name="e48" lb="16.32" ub="16.32"/><con name="e49" lb="48.42" ub="48.42"/><con name="e50" lb="118.491" ub="118.491"/><con name="e51" lb="519.665" ub="519.665"/><con name="e52" ub="0"/><con name="e53" ub="0"/><con name="e54" ub="0"/><con name="e55" ub="0"/><con name="e56" ub="0"/><con name="e57" ub="0"/><con name="e58" ub="0"/><con name="e59" ub="0"/><con name="e60" ub="0"/><con name="e61" ub="0"/><con name="e62" ub="0"/><con name="e63" ub="0"/><con name="e64" ub="0"/><con name="e65" ub="0"/><con name="e66" ub="0"/><con name="e67" ub="0"/><con name="e68" ub="0"/><con name="e69" ub="0"/><con name="e70" ub="0"/><con name="e71" ub="0"/><con name="e72" ub="0"/><con name="e73" ub="0"/><con name="e74" ub="0"/><con name="e75" ub="133"/><con name="e76" ub="133"/><con name="e77" ub="133"/><con name="e78" ub="41"/><con name="e79" ub="41"/><con name="e80" ub="41"/><con name="e81" ub="241"/><con name="e82" ub="241"/><con name="e83" ub="241"/><con name="e84" ub="149"/><con name="e85" ub="149"/><con name="e86" ub="149"/><con name="e87" ub="317"/><con name="e88" ub="317"/><con name="e89" ub="317"/><con name="e90" ub="225"/><con name="e91" ub="225"/><con name="e92" ub="225"/><con name="e93" ub="133"/><con name="e94" ub="133"/><con name="e95" ub="133"/><con name="e96" ub="41"/><con name="e97" ub="41"/><con name="e98" ub="41"/><con name="e99" ub="241"/><con name="e100" ub="241"/><con name="e101" ub="241"/><con name="e102" ub="149"/><con name="e103" ub="149"/><con name="e104" ub="149"/><con name="e105" ub="317"/><con name="e106" ub="317"/><con name="e107" ub="317"/><con name="e108" ub="225"/><con name="e109" ub="225"/><con name="e110" ub="225"/><con name="e111" ub="-60"/><con name="e112" ub="-60"/><con name="e113" ub="-60"/><con name="e114" ub="300"/><con name="e115" ub="300"/><con name="e116" ub="1"/><con name="e117" ub="1"/><con name="e118" ub="1"/><con name="e119" ub="1"/><con name="e120" ub="1"/><con name="e121" ub="1"/><con name="e122" ub="1"/><con name="e123" ub="1"/><con name="e124" ub="1"/><con name="e125" ub="1"/><con name="e126" ub="1"/><con name="e127" ub="1"/><con name="e128" ub="1"/><con name="e129" ub="1"/><con name="e130" ub="1"/></constraints><linearConstraintCoefficients numberOfValues="393"><start><el mult="4" incr="7">0</el><el>31</el><el mult="10" incr="4">41</el><el mult="6" incr="5">82</el><el mult="5" incr="1">108</el><el mult="15" incr="2">114</el><el mult="5" incr="1">143</el><el mult="28" incr="2">149</el><el mult="36" incr="4">207</el><el mult="5" incr="2">349</el><el mult="6" incr="3">360</el><el mult="9" incr="2">377</el></start><colIdx><el mult="6" incr="1">20</el><el>38</el><el mult="6" incr="1">26</el><el>39</el><el mult="6" incr="1">32</el><el>40</el><el mult="3" incr="1">20</el><el mult="3" incr="1">26</el><el mult="3" incr="1">32</el><el>41</el><el mult="3" incr="1">23</el><el mult="3" incr="1">29</el><el mult="3" incr="1">35</el><el>42</el><el>0</el><el>1</el><el>20</el><el>23</el><el>1</el><el>2</el><el>21</el><el>24</el><el>2</el><el>3</el><el>22</el><el>25</el><el>4</el><el>5</el><el>26</el><el>29</el><el>5</el><el>6</el><el>27</el><el>30</el><el>6</el><el>7</el><el>28</el><el>31</el><el>8</el><el>9</el><el>32</el><el>35</el><el>9</el><el>10</el><el>33</el><el>36</el><el>10</el><el>11</el><el>34</el><el>37</el><el>12</el><el>13</el><el mult="3" incr="6">20</el><el>13</el><el>14</el><el mult="3" incr="6">21</el><el>14</el><el>15</el><el mult="3" incr="6">22</el><el>16</el><el mult="4" incr="6">17</el><el>17</el><el mult="4" incr="6">18</el><el>18</el><el mult="4" incr="6">19</el><el mult="3" incr="4">0</el><el>14</el><el>18</el><el>0</el><el mult="2">1</el><el mult="2">2</el><el mult="3" incr="1">3</el><el>5</el><el mult="2">6</el><el mult="3" incr="1">7</el><el>9</el><el mult="2">10</el><el mult="3" incr="1">11</el><el>13</el><el mult="2">14</el><el mult="3" incr="1">15</el><el>17</el><el mult="2">18</el><el>19</el><el mult="3" incr="4">2</el><el>12</el><el>16</el><el>2</el><el>38</el><el>6</el><el>39</el><el>10</el><el>40</el><el>12</el><el>41</el><el>16</el><el>42</el><el>20</el><el>72</el><el>21</el><el>73</el><el>22</el><el>74</el><el>23</el><el>75</el><el>24</el><el>76</el><el>25</el><el>77</el><el>26</el><el>78</el><el>27</el><el>79</el><el>28</el><el>80</el><el>29</el><el>81</el><el>30</el><el>82</el><el>31</el><el>83</el><el>32</el><el>84</el><el>33</el><el>85</el><el>34</el><el>86</el><el>35</el><el>87</el><el>36</el><el>88</el><el>37</el><el>89</el><el>38</el><el>90</el><el>39</el><el>91</el><el>40</el><el>92</el><el>41</el><el>93</el><el>42</el><el>94</el><el>0</el><el>12</el><el>43</el><el>72</el><el>1</el><el>13</el><el>44</el><el>73</el><el>2</el><el>14</el><el>45</el><el>74</el><el>0</el><el>16</el><el>47</el><el>75</el><el>1</el><el>17</el><el>48</el><el>76</el><el>2</el><el>18</el><el>49</el><el>77</el><el>4</el><el>12</el><el>51</el><el>78</el><el>5</el><el>13</el><el>52</el><el>79</el><el>6</el><el>14</el><el>53</el><el>80</el><el>4</el><el>16</el><el>55</el><el>81</el><el>5</el><el>17</el><el>56</el><el>82</el><el>6</el><el>18</el><el>57</el><el>83</el><el>8</el><el>12</el><el>59</el><el>84</el><el>9</el><el>13</el><el>60</el><el>85</el><el>10</el><el>14</el><el>61</el><el>86</el><el>8</el><el>16</el><el>63</el><el>87</el><el>9</el><el>17</el><el>64</el><el>88</el><el>10</el><el>18</el><el>65</el><el>89</el><el>1</el><el>13</el><el>44</el><el>72</el><el>2</el><el>14</el><el>45</el><el>73</el><el>3</el><el>15</el><el>46</el><el>74</el><el>1</el><el>17</el><el>48</el><el>75</el><el>2</el><el>18</el><el>49</el><el>76</el><el>3</el><el>19</el><el>50</el><el>77</el><el>5</el><el>13</el><el>52</el><el>78</el><el>6</el><el>14</el><el>53</el><el>79</el><el>7</el><el>15</el><el>54</el><el>80</el><el>5</el><el>17</el><el>56</el><el>81</el><el>6</el><el>18</el><el>57</el><el>82</el><el>7</el><el>19</el><el>58</el><el>83</el><el>9</el><el>13</el><el>60</el><el>84</el><el>10</el><el>14</el><el>61</el><el>85</el><el>11</el><el>15</el><el>62</el><el>86</el><el>9</el><el>17</el><el>64</el><el>87</el><el>10</el><el>18</el><el>65</el><el>88</el><el>11</el><el>19</el><el>66</el><el>89</el><el>2</el><el>67</el><el>6</el><el>68</el><el>10</el><el>69</el><el>12</el><el>70</el><el>16</el><el>71</el><el mult="3" incr="6">72</el><el mult="3" incr="6">73</el><el mult="3" incr="6">74</el><el mult="3" incr="6">75</el><el mult="3" incr="6">76</el><el mult="3" incr="6">77</el><el>72</el><el>75</el><el>73</el><el>76</el><el>74</el><el>77</el><el>78</el><el>81</el><el>79</el><el>82</el><el>80</el><el>83</el><el>84</el><el>87</el><el>85</el><el>88</el><el>86</el><el>89</el></colIdx><value><el mult="41">1</el><el>2.285</el><el>-2.285</el><el mult="2">-1</el><el>2.285</el><el>-2.285</el><el mult="2">-1</el><el>2.285</el><el>-2.285</el><el mult="2">-1</el><el>.204</el><el>-.204</el><el mult="2">-1</el><el>.204</el><el>-.204</el><el mult="2">-1</el><el>.204</el><el>-.204</el><el mult="2">-1</el><el>.538</el><el>-.538</el><el mult="2">-1</el><el>.538</el><el>-.538</el><el mult="2">-1</el><el>.538</el><el>-.538</el><el mult="2">-1</el><el>.933</el><el>-.933</el><el mult="3">-1</el><el>.933</el><el>-.933</el><el mult="3">-1</el><el>.933</el><el>-.933</el><el mult="3">-1</el><el>1.961</el><el>-1.961</el><el mult="3">-1</el><el>1.961</el><el>-1.961</el><el mult="3">-1</el><el>1.961</el><el>-1.961</el><el mult="3">-1</el><el mult="5">1</el><el>-1</el><el>1</el><el>-1</el><el>1</el><el>-1</el><el>1</el><el>-1</el><el>1</el><el>-1</el><el>1</el><el>-1</el><el>1</el><el>-1</el><el>1</el><el>-1</el><el>1</el><el>-1</el><el>1</el><el>-1</el><el>1</el><el>-1</el><el>1</el><el>-1</el><el>1</el><el>-1</el><el>1</el><el>-1</el><el>1</el><el>-1</el><el>1</el><el mult="3">-1</el><el mult="2">1</el><el>2.285</el><el>-1</el><el>.204</el><el>-1</el><el>.538</el><el>-1</el><el>.933</el><el>1</el><el>1.961</el><el mult="2">1</el><el>-94.233</el><el>1</el><el>-94.233</el><el>1</el><el>-94.233</el><el>1</el><el>-187.37</el><el>1</el><el>-187.37</el><el>1</el><el>-187.37</el><el>1</el><el>-38.148</el><el>1</el><el>-38.148</el><el>1</el><el>-38.148</el><el>1</el><el>-38.148</el><el>1</el><el>-38.148</el><el>1</el><el>-38.148</el><el>1</el><el>-94.233</el><el>1</el><el>-94.233</el><el>1</el><el>-94.233</el><el>1</el><el>-136.114</el><el>1</el><el>-136.114</el><el>1</el><el>-136.114</el><el>1</el><el>-187.37</el><el>1</el><el>-38.148</el><el>1</el><el>-136.114</el><el>1</el><el>-94.233</el><el>1</el><el>-288.267</el><el>-1</el><el mult="2">1</el><el>133</el><el>-1</el><el mult="2">1</el><el>133</el><el>-1</el><el mult="2">1</el><el>133</el><el>-1</el><el mult="2">1</el><el>41</el><el>-1</el><el mult="2">1</el><el>41</el><el>-1</el><el mult="2">1</el><el>41</el><el>-1</el><el mult="2">1</el><el>241</el><el>-1</el><el mult="2">1</el><el>241</el><el>-1</el><el mult="2">1</el><el>241</el><el>-1</el><el mult="2">1</el><el>149</el><el>-1</el><el mult="2">1</el><el>149</el><el>-1</el><el mult="2">1</el><el>149</el><el>-1</el><el mult="2">1</el><el>317</el><el>-1</el><el mult="2">1</el><el>317</el><el>-1</el><el mult="2">1</el><el>317</el><el>-1</el><el mult="2">1</el><el>225</el><el>-1</el><el mult="2">1</el><el>225</el><el>-1</el><el mult="2">1</el><el>225</el><el>-1</el><el mult="2">1</el><el>133</el><el>-1</el><el mult="2">1</el><el>133</el><el>-1</el><el mult="2">1</el><el>133</el><el>-1</el><el mult="2">1</el><el>41</el><el>-1</el><el mult="2">1</el><el>41</el><el>-1</el><el mult="2">1</el><el>41</el><el>-1</el><el mult="2">1</el><el>241</el><el>-1</el><el mult="2">1</el><el>241</el><el>-1</el><el mult="2">1</el><el>241</el><el>-1</el><el mult="2">1</el><el>149</el><el>-1</el><el mult="2">1</el><el>149</el><el>-1</el><el mult="2">1</el><el>149</el><el>-1</el><el mult="2">1</el><el>317</el><el>-1</el><el mult="2">1</el><el>317</el><el>-1</el><el mult="2">1</el><el>317</el><el>-1</el><el mult="2">1</el><el>225</el><el>-1</el><el mult="2">1</el><el>225</el><el>-1</el><el mult="2">1</el><el>225</el><el>-1</el><el>1</el><el>-1</el><el>1</el><el>-1</el><el mult="41">1</el></value></linearConstraintCoefficients><nonlinearExpressions numberOfNonlinearExpressions="1"><nl idx="-1"><sum><divide><variable idx="20" coef="1.76e4"/><sum><variable idx="43"/><variable idx="44"/></sum></divide><divide><variable idx="21" coef="1.76e4"/><sum><variable idx="44"/><variable idx="45"/></sum></divide><divide><variable idx="22" coef="1.76e4"/><sum><variable idx="45"/><variable idx="46"/></sum></divide><divide><variable idx="23" coef="1.92e3"/><sum><variable idx="47"/><variable idx="48"/></sum></divide><divide><variable idx="24" coef="1.92e3"/><sum><variable idx="48"/><variable idx="49"/></sum></divide><divide><variable idx="25" coef="1.92e3"/><sum><variable idx="49"/><variable idx="50"/></sum></divide><divide><variable idx="26" coef="2e4"/><sum><variable idx="51"/><variable idx="52"/></sum></divide><divide><variable idx="27" coef="2e4"/><sum><variable idx="52"/><variable idx="53"/></sum></divide><divide><variable idx="28" coef="2e4"/><sum><variable idx="53"/><variable idx="54"/></sum></divide><divide><variable idx="29" coef="4.32e3"/><sum><variable idx="55"/><variable idx="56"/></sum></divide><divide><variable idx="30" coef="4.32e3"/><sum><variable idx="56"/><variable idx="57"/></sum></divide><divide><variable idx="31" coef="4.32e3"/><sum><variable idx="57"/><variable idx="58"/></sum></divide><divide><variable idx="32" coef="1.632e4"/><sum><variable idx="59"/><variable idx="60"/></sum></divide><divide><variable idx="33" coef="1.632e4"/><sum><variable idx="60"/><variable idx="61"/></sum></divide><divide><variable idx="34" coef="1.632e4"/><sum><variable idx="61"/><variable idx="62"/></sum></divide><divide><variable idx="35" coef="6.4e2"/><sum><variable idx="63"/><variable idx="64"/></sum></divide><divide><variable idx="36" coef="6.4e2"/><sum><variable idx="64"/><variable idx="65"/></sum></divide><divide><variable idx="37" coef="6.4e2"/><sum><variable idx="65"/><variable idx="66"/></sum></divide><divide><variable idx="38" coef="2.4e3"/><sum><number value="57"/><variable idx="67"/></sum></divide><divide><variable idx="39" coef="4.8e3"/><sum><number value="60"/><variable idx="68"/></sum></divide><divide><variable idx="40" coef="1.12e3"/><sum><number value="70"/><variable idx="69"/></sum></divide><divide><variable idx="41" coef="1.92e4"/><sum><number value="173"/><variable idx="70"/></sum></divide><divide><variable idx="42" coef="3.52e3"/><sum><number value="35"/><variable idx="71"/></sum></divide><variable idx="41" coef="1.1e2"/><variable idx="42" coef="1.1e2"/><variable idx="38" coef="10"/><variable idx="39" coef="10"/><variable idx="40" coef="10"/></sum></nl></nonlinearExpressions></instanceData></osil>